5
32
87
40	22
1	4	7	10	6	9	10	5	12	4	
2	1	8	4	
3	4	5	6	22	3	8	3	7	2	
4	3	7	11	7	4	11	3	
5	1	10	3	
6	4	9	6	10	5	8	3	5	2	
7	1	7	5	
8	2	5	11	11	4	
9	1	11	3	
10	1	6	3	
11	3	5	11	5	4	9	2	
12	2	21	4	22	3	
13	3	11	6	5	4	7	3	
14	5	8	10	6	6	11	3	5	3	5	3	
15	3	12	5	4	3	4	3	
16	3	5	9	6	5	14	3	
17	5	9	4	7	4	13	3	13	2	11	2	
18	4	10	6	6	6	11	4	9	3	
19	2	4	3	10	2	
20	2	6	4	5	4	
21	1	13	3	
22	2	6	5	4	5	
23	4	6	7	20	3	8	3	6	3	
24	4	4	8	7	4	7	4	7	2	
25	4	5	8	8	6	6	6	7	3	
26	1	6	3	
27	3	7	6	8	5	20	3	
28	5	6	9	11	3	9	3	9	2	7	2	
29	1	21	2	
30	4	6	6	5	4	22	3	14	3	
31	3	5	6	6	4	18	2	
32	1	21	2	
